# 29729
param k := 6;
param n := 60;
param s := 1;
set E :=  (0,39) (0,41) (0,46) (1,5) (1,44) (2,10) (3,16) (3,53) (4,19) (4,55) (5,29) (5,33) (5,49) (6,22) (7,41) (8,41) (9,12) (9,27) (9,45) (10,25) (11,19) (11,47) (12,18) (12,51) (13,31) (13,34) (13,48) (14,28) (14,52) (15,35) (15,50) (15,54) (16,38) (17,19) (17,38) (17,45) (19,40) (20,33) (21,29) (21,49) (22,29) (23,42) (24,54) (25,39) (26,47) (29,59) (30,50) (32,36) (33,36) (33,41) (34,46) (36,55) (36,56) (37,50) (38,57) (40,50) (42,56) (43,58) (45,57) (46,52) (48,56) (51,53) (51,58);